SCIP Status        : solving was interrupted [time limit reached]
Total Time         :    3600.02
  solving          :    3600.00
  presolving       :       0.18 (included in solving)
  reading          :       0.02
  copying          :       0.17 (24 #copies) (minimal 0.00, maximal 0.01, average 0.01)
Original Problem   :
  Problem name     : benchmark/block2_66_12_11_13.design
  Variables        : 1893 (66 binary, 0 integer, 0 implicit integer, 1827 continuous)
  Constraints      : 2632 initial, 2632 maximal
  Objective        : minimize, 1 non-zeros (abs.min = 1, abs.max = 1)
Presolved Problem  :
  Problem name     : t_benchmark/block2_66_12_11_13.design
  Variables        : 2753 (66 binary, 0 integer, 0 implicit integer, 2687 continuous)
  Constraints      : 2632 initial, 2640 maximal
  Objective        : minimize, 1 non-zeros (abs.min = 1, abs.max = 1)
  Nonzeros         : 9033 constraint, 0 clique table
Presolvers         :   ExecTime  SetupTime  Calls  FixedVars   AggrVars   ChgTypes  ChgBounds   AddHoles    DelCons    AddCons   ChgSides   ChgCoefs
  boundshift       :       0.00       0.00      0          0          0          0          0          0          0          0          0          0
  convertinttobin  :       0.00       0.00      0          0          0          0          0          0          0          0          0          0
  domcol           :       0.00       0.00      1          0          0          0          0          0          0          0          0          0
  dualagg          :       0.00       0.00      0          0          0          0          0          0          0          0          0          0
  dualcomp         :       0.00       0.00      1          0          0          0          0          0          0          0          0          0
  dualinfer        :       0.00       0.00      0          0          0          0          0          0          0          0          0          0
  dualsparsify     :       0.00       0.00      1          0          0          0          0          0          0          0          0          0
  gateextraction   :       0.00       0.00      0          0          0          0          0          0          0          0          0          0
  implics          :       0.00       0.00      1          0          0          0          0          0          0          0          0          0
  inttobinary      :       0.00       0.00      0          0          0          0          0          0          0          0          0          0
  qpkktref         :       0.00       0.00      0          0          0          0          0          0          0          0          0          0
  redvub           :       0.00       0.00      0          0          0          0          0          0          0          0          0          0
  sparsify         :       0.00       0.00      1          0          0          0          0          0          0          0          0          0
  stuffing         :       0.00       0.00      0          0          0          0          0          0          0          0          0          0
  trivial          :       0.00       0.00      2         55          0          0          0          0          0          0          0          0
  tworowbnd        :       0.00       0.00      0          0          0          0          0          0          0          0          0          0
  dualfix          :       0.00       0.00      2         55          0          0          0          0          0          0          0          0
  genvbounds       :       0.00       0.00      0          0          0          0          0          0          0          0          0          0
  probing          :       0.02       0.00      1          0          0          0          0          0          0          0          0          0
  pseudoobj        :       0.00       0.00      0          0          0          0          0          0          0          0          0          0
  symmetry         :       0.01       0.00      1          0          0          0          0          0          0          0          0          0
  vbounds          :       0.00       0.00      0          0          0          0          0          0          0          0          0          0
  linear           :       0.01       0.00      3          0          0          0          0          0          0          0          0          0
  nonlinear        :       0.12       0.03      4          0          0          0        121          0          0          0          0          0
  benders          :       0.00       0.00      0          0          0          0          0          0          0          0          0          0
  components       :       0.00       0.00      1          0          0          0          0          0          0          0          0          0
  root node        :          -          -      -          0          -          -       3533          -          -          -          -          -
Constraints        :     Number  MaxNumber  #Separate #Propagate    #EnfoLP    #EnfoRelax  #EnfoPS    #Check   #ResProp    Cutoffs    DomReds       Cuts    Applied      Conss   Children
  benderslp        :          0          0          0          0      31684          0          0      30074          0          0          0          0          0          0          0
  integral         :          0          0          0          0      31684          0          0      30074          0          0       8253          0          0          0      62814
  linear           :       1784+      1792         86     843442          0          0          0      30068         12        104      37993         83          5          0          0
  nonlinear        :        848        848     231873     843338          0          0          0      18360          0        174    2903348     911550     900562          0          0
  benders          :          0          0          0          0          0          0          0          6          0          0          0          0          0          0          0
  countsols        :          0          0          0          0          0          0          0          6          0          0          0          0          0          0          0
  components       :          0          0          0          0          0          0          0          0          0          0          0          0          0          0          0
Constraint Timings :  TotalTime  SetupTime   Separate  Propagate     EnfoLP     EnfoPS     EnfoRelax   Check    ResProp    SB-Prop
  benderslp        :       0.05       0.00       0.00       0.00       0.04       0.00       0.00       0.01       0.00       0.00
  integral         :      13.85       0.00       0.00       0.00      13.85       0.00       0.00       0.00       0.00       0.00
  linear           :      28.83       0.00       0.03      26.53       0.00       0.00       0.00       2.26       0.00       0.01
  nonlinear        :     609.90       0.03     440.10     158.11       0.00       0.00       0.00      11.29       0.00       0.37
  benders          :       0.00       0.00       0.00       0.00       0.00       0.00       0.00       0.00       0.00       0.00
  countsols        :       0.00       0.00       0.00       0.00       0.00       0.00       0.00       0.00       0.00       0.00
  components       :       0.08       0.00       0.00       0.08       0.00       0.00       0.00       0.00       0.00       0.00
Propagators        : #Propagate   #ResProp    Cutoffs    DomReds
  dualfix          :          4          0          0          0
  genvbounds       :          0          0          0          0
  nlobbt           :          0          0          0          0
  obbt             :          0          0          0          0
  probing          :          0          0          0          0
  pseudoobj        :      97289          0          0         11
  redcost          :     295251          0          0         23
  rootredcost      :          4          0          0       2673
  symmetry         :          0          0          0          0
  vbounds          :     185327          0          0          0
Propagator Timings :  TotalTime  SetupTime   Presolve  Propagate    ResProp    SB-Prop
  dualfix          :       0.00       0.00       0.00       0.00       0.00       0.00
  genvbounds       :       0.38       0.00       0.00       0.38       0.00       0.00
  nlobbt           :       0.00       0.00       0.00       0.00       0.00       0.00
  obbt             :       0.00       0.00       0.00       0.00       0.00       0.00
  probing          :       0.02       0.00       0.02       0.00       0.00       0.00
  pseudoobj        :       0.57       0.00       0.00       0.57       0.00       0.00
  redcost          :       6.28       0.00       0.00       6.28       0.00       0.00
  rootredcost      :       0.32       0.00       0.00       0.32       0.00       0.00
  symmetry         :       0.26       0.00       0.01       0.25       0.00       0.00
  vbounds          :       0.30       0.00       0.00       0.30       0.00       0.00
Conflict Analysis  :       Time      Calls    Success    DomReds  Conflicts   Literals    Reconvs ReconvLits   Dualrays   Nonzeros   LP Iters   (pool size: [--,--])
  propagation      :       0.00         28          6          -          9      126.8          0        0.0          -          -          -
  infeasible LP    :       0.00          0          0          -          0        0.0          0        0.0        344      178.6          0
  bound exceed. LP :      13.04       4209        344          -          0        0.0          0        0.0          0        0.0      70335
  strong branching :       0.00          0          0          -          0        0.0          0        0.0          -          -          0
  pseudo solution  :       0.00          0          0          -          0        0.0          0        0.0          -          -          -
  applied globally :       0.00          -          -          0          0        0.0          -          -        344          -          -
  applied locally  :          -          -          -          0          0        0.0          -          -          0          -          -
Separators         :   ExecTime  SetupTime      Calls  RootCalls    Cutoffs    DomReds  FoundCuts ViaPoolAdd  DirectAdd    Applied ViaPoolApp  DirectApp      Conss
  cut pool         :       0.00          -       6040         82          -          -         90        197          -          -          -          -          -    (maximal pool size:          5)
  aggregation      :       7.50       0.00       5204         86          0          0          0          0          0          0          0          0          0
  > cmir           :          -          -          -          -          -          -          -          0          0          0          0          0          -
  > flowcover      :          -          -          -          -          -          -          -          0          0          0          0          0          -
  > knapsackcover  :          -          -          -          -          -          -          -          0          0          0          0          0          -
  cgmip            :       0.00       0.00          0          0          0          0          0          0          0          0          0          0          0
  clique           :       0.00       0.00          1          1          0          0          0          0          0          0          0          0          0
  closecuts        :       0.00       0.00          0          0          0          0          0          0          0          0          0          0          0
  convexproj       :       0.00       0.00          0          0          0          0          0          0          0          0          0          0          0
  disjunctive      :       0.00       0.00          0          0          0          0          0          0          0          0          0          0          0
  eccuts           :       0.00       0.00          0          0          0          0          0          0          0          0          0          0          0
  gauge            :       0.00       0.00          0          0          0          0          0          0          0          0          0          0          0
  gomory           :       2.61       0.00       3268         10          0          0         99        197          9        164        161          3          0
  > gomorymi       :          -          -          -          -          -          -          -        197          9        164        161          3          -
  > strongcg       :          -          -          -          -          -          -          -          0          0          0          0          0          -
  impliedbounds    :       0.48       0.00       5204         86          0          0          0          0          0          0          0          0          0
  interminor       :       0.00       0.00          0          0          0          0          0          0          0          0          0          0          0
  intobj           :       0.00       0.00          0          0          0          0          0          0          0          0          0          0          0
  mcf              :       0.00       0.00          3          3          0          0          0          0          0          0          0          0          0
  minor            :       0.00       0.00          0          0          0          0          0          0          0          0          0          0          0
  mixing           :       0.26       0.00       5204         86          0          0          0          0          0          0          0          0          0
  oddcycle         :       0.00       0.00          0          0          0          0          0          0          0          0          0          0          0
  rapidlearning    :       0.01       0.00          0          0          0          0          0          0          0          0          0          0          0
  rlt              :       0.00       0.00         10         10          0          0          0          0          0          0          0          0          0
  zerohalf         :       1.03       0.00       3278         20          0          0          0          0          0          0          0          0          0
Cutselectors       :   ExecTime  SetupTime      Calls  RootCalls   Selected     Forced   Filtered  RootSelec   RootForc   RootFilt 
  hybrid           :       0.84       0.00     231873         86     900731          0      11108       2785          0        118
Pricers            :   ExecTime  SetupTime      Calls       Vars
  problem variables:       0.00          -          0          0
Branching Rules    :   ExecTime  SetupTime   BranchLP  BranchExt   BranchPS    Cutoffs    DomReds       Cuts      Conss   Children
  allfullstrong    :       0.00       0.00          0          0          0          0          0          0          0          0
  cloud            :       0.00       0.00          0          0          0          0          0          0          0          0
  distribution     :       0.00       0.00          0          0          0          0          0          0          0          0
  fullstrong       :       0.00       0.00          0          0          0          0          0          0          0          0
  inference        :       0.00       0.00          0          0          0          0          0          0          0          0
  leastinf         :       0.00       0.00          0          0          0          0          0          0          0          0
  lookahead        :       0.00       0.00          0          0          0          0          0          0          0          0
  mostinf          :       0.00       0.00          0          0          0          0          0          0          0          0
  multaggr         :       0.00       0.00          0          0          0          0          0          0          0          0
  nodereopt        :       0.00       0.00          0          0          0          0          0          0          0          0
  pscost           :       0.00       0.00          0          0          0          0          0          0          0          0
  random           :       0.00       0.00          0          0          0          0          0          0          0          0
  relpscost        :      13.79       0.00      31684          0          0          0       8253          0          0      62814
  vanillafullstrong:       0.00       0.00          0          0          0          0          0          0          0          0
Primal Heuristics  :   ExecTime  SetupTime      Calls      Found       Best
  LP solutions     :       0.00          -          -          0          0
  relax solutions  :       0.00          -          -          0          0
  pseudo solutions :       0.00          -          -          0          0
  strong branching :       0.00          -          -          0          0
  actconsdiving    :       0.00       0.00          0          0          0
  adaptivediving   :       2.43       0.00         53          0          0
  alns             :       9.21       0.00         10          1          1
  bound            :       0.00       0.00          0          0          0
  clique           :       0.00       0.00          0          0          0
  coefdiving       :       0.00       0.00          0          0          0
  completesol      :       0.00       0.00          0          0          0
  conflictdiving   :     129.46       0.00       1711          0          0
  crossover        :       0.00       0.00          0          0          0
  dins             :       0.00       0.00          0          0          0
  distributiondivin:     326.23       0.00        929          0          0
  dps              :       0.00       0.00          0          0          0
  dualval          :       0.00       0.00          0          0          0
  farkasdiving     :       0.00       0.00          0          0          0
  feaspump         :      22.99       0.00        134          0          0
  fixandinfer      :       0.00       0.00          0          0          0
  fracdiving       :      52.73       0.00        876          0          0
  gins             :       0.02       0.00          0          0          0
  guideddiving     :      54.38       0.00        905          0          0
  indicator        :       0.28       0.00          0          0          0
  indicatordiving  :       0.00       0.00          0          0          0
  intdiving        :       0.00       0.00          0          0          0
  intshifting      :       1.47       0.00         60          0          0
  linesearchdiving :      53.18       0.00       1103          0          0
  localbranching   :       0.00       0.00          0          0          0
  locks            :       0.04       0.00          1          0          0
  lpface           :       0.06       0.00          0          0          0
  mpec             :       5.00       0.00          1          0          0
  multistart       :       0.00       0.00          0          0          0
  mutation         :       0.00       0.00          0          0          0
  nlpdiving        :       6.74       0.00          3          0          0
  objpscostdiving  :      49.36       0.00         82          0          0
  octane           :       0.00       0.00          0          0          0
  ofins            :       0.02       0.00          0          0          0
  oneopt           :       0.02       0.00          5          0          0
  padm             :       0.00       0.00          0          0          0
  proximity        :       0.00       0.00          0          0          0
  pscostdiving     :      53.89       0.00        753          0          0
  randrounding     :       5.53       0.00      14858          0          0
  rens             :       0.00       0.00          0          0          0
  reoptsols        :       0.00       0.00          0          0          0
  repair           :       0.00       0.00          0          0          0
  rins             :      18.28       0.00         14          1          1
  rootsoldiving    :       7.61       0.00         50          0          0
  rounding         :       0.87       0.00       7236          0          0
  shiftandpropagate:       0.03       0.00          1          0          0
  shifting         :       1.65       0.00       1972          0          0
  simplerounding   :       0.36       0.00          0          0          0
  subnlp           :       9.38       0.00         27          3          3
  trivial          :       0.01       0.00          2          0          0
  trivialnegation  :       0.00       0.00          0          0          0
  trustregion      :       0.00       0.00          0          0          0
  trysol           :       0.22       0.00          0          0          0
  twoopt           :       0.00       0.00          0          0          0
  undercover       :       0.36       0.00          1          0          0
  vbounds          :       0.00       0.00          0          0          0
  veclendiving     :      62.16       0.00       1373          0          0
  zeroobj          :       0.00       0.00          0          0          0
  zirounding       :       0.04       0.00       1000          0          0
  other solutions  :          -          -          -          0          -
Diving (single)    :      Calls      Nodes   LP Iters Backtracks  Conflicts   MinDepth   MaxDepth   AvgDepth  RoundSols  NLeafSols  MinSolDpt  MaxSolDpt  AvgSolDpt
  actconsdiving    :          0          -          -          -          -          -          -          -          -          -          -          -          -
  coefdiving       :          0          -          -          -          -          -          -          -          -          -          -          -          -
  conflictdiving   :       1711      21556     893708       2963        197         15         66       29.1          0          -          -          -          -
  distributiondivin:        929      24639     460393        376        100         15         66       43.3          0          -          -          -          -
  farkasdiving     :          0          -          -          -          -          -          -          -          -          -          -          -          -
  fracdiving       :        876      41572     460702         23          8         40         66       64.1          0          -          -          -          -
  guideddiving     :        905      37201     460486         91         11         30         66       59.5          0          -          -          -          -
  indicatordiving  :          0          -          -          -          -          -          -          -          -          -          -          -          -
  linesearchdiving :       1103      30843     459988        201         18         29         62       45.7          0          -          -          -          -
  pscostdiving     :        753      36619     461042          2          0         37         66       65.0          0          -          -          -          -
  veclendiving     :       1373       8205     457665        436         18         15         56       23.0          0          -          -          -          -
Diving (adaptive)  :      Calls      Nodes   LP Iters Backtracks  Conflicts   MinDepth   MaxDepth   AvgDepth  RoundSols  NLeafSols  MinSolDpt  MaxSolDpt  AvgSolDpt
  actconsdiving    :         12         62       4349          1          0         18         23       20.8          0          -          -          -          -
  coefdiving       :         27        149       7656          0          0         16         30       23.5          0          -          -          -          -
  conflictdiving   :          0          -          -          -          -          -          -          -          -          -          -          -          -
  distributiondivin:          0          -          -          -          -          -          -          -          -          -          -          -          -
  farkasdiving     :          0          -          -          -          -          -          -          -          -          -          -          -          -
  fracdiving       :          2         86       1000          0          0         59         64       61.5          0          -          -          -          -
  guideddiving     :          2        104       1316          0          0         62         64       63.0          0          -          -          -          -
  indicatordiving  :          0          -          -          -          -          -          -          -          -          -          -          -          -
  linesearchdiving :          2         37        583          0          0         36         40       38.0          0          -          -          -          -
  pscostdiving     :          4        189       2384          0          0         60         65       63.0          0          -          -          -          -
  veclendiving     :          4         19       1269          0          0         19         23       21.5          0          -          -          -          -
Neighborhoods      :      Calls  SetupTime  SolveTime SolveNodes       Sols       Best       Exp3  EpsGreedy        UCB TgtFixRate  Opt  Inf Node Stal  Sol  Usr Othr Actv
  rens             :          1       0.02       0.01          0          0          0    0.00000   -1.00000    0.56305      0.700    0    1    0    0    0    0    0    1
  rins             :          1       0.01       1.26         17          0          0    0.00000   -1.00000    0.54502      0.700    0    1    0    0    0    0    0    1
  mutation         :          1       0.01       0.80         11          0          0    0.00000   -1.00000    0.55305      0.700    0    1    0    0    0    0    0    1
  localbranching   :          1       0.01       1.23          1          0          0    0.00000   -1.00000    0.56199      0.700    0    1    0    0    0    0    0    1
  crossover        :          0       0.00       0.00          0          0          0    0.00000   -1.00000    0.06305      0.900    0    0    0    0    0    0    0    1
  proximity        :          1       0.02       0.84          1          0          0    0.00000   -1.00000    0.56199      0.700    0    1    0    0    0    0    0    1
  zeroobjective    :          1       0.01       0.00          0          0          0    0.00000   -1.00000    0.06305      0.900    0    0    0    0    0    0    1    1
  dins             :          4       0.06       4.82        126          1          1    0.00000   -1.00000    0.57043      0.816    1    1    0    2    0    0    0    1
  trustregion      :          0       0.00       0.00          0          0          0    0.00000   -1.00000    1.00000      0.900    0    0    0    0    0    0    0    0
Expressions        :   #IntEval  IntEvalTi   #RevProp  RevPropTi    DomReds    Cutoffs  #Estimate  EstimTime  Branching  #Simplify SimplifyTi Simplified
  pow              :   32738922       6.46   10442325       2.59   19078928          0       1211       0.00          0       1837       0.00          0
  prod             :   27477920       6.74     147598       0.01        376          0          0       0.00          0       1454       0.00        726
  sum              :   31287352       7.50   17364332       4.96    1802349         39        122       0.00          0       1817       0.00        122
  var              :   76950845      15.31          0       0.00          0          0          0       0.00          0       4984       0.00          0
  varidx           :          0       0.00          0       0.00          0          0          0       0.00          0          0       0.00          0
Nonlinear Conshdlr :   WeakSepa  TightenLP DespTghtLP DespBranch DespCutoff    ForceLP  CanonTime
  enforce          :          0          0          0          0          0          0
  presolve         :                                                                         0.12
Nlhdlrs            :    Detects  DetectAll DetectTime   #IntEval  IntEvalTi   #RevProp  RevPropTi    DomReds    Cutoffs   #Enforce   EnfoTime       Cuts  Branching
  soc              :        726        726       0.00          0       0.00          0       0.00          0          0  112447510     184.01     678587          0
  convex           :          1          1       0.01          0       0.00          0       0.00          0          0     231874       1.37     231873          0
  concave          :          0          0       0.00          0       0.00          0       0.00          0          0          0       0.00          0          0
  quotient         :          0          0       0.01          0       0.00          0       0.00          0          0          0       0.00          0          0
  quadratic        :          0          0       0.00          0       0.00          0       0.00          0          0          0       0.00          0          0
  default          :       4205      21025       0.00   91500569      50.25   27959571      47.63   20881653         39       1333       0.00       1090          0
  bilinear         :          0          0       0.00          0       0.00          0       0.00          0          0          0       0.00          0          0
  perspective      :          0          0       0.00          0       0.00          0       0.00          0          0          0       0.00          0          0
LP                 :       Time      Calls Iterations  Iter/call   Iter/sec  Time-0-It Calls-0-It    ItLimit
  primal LP        :     970.08      33873          0       0.00       0.00     969.94      33873
  dual LP          :    1065.79     263576    9089373      34.52    8528.30       0.12        291
  lex dual LP      :       0.00          0          0       0.00          -
  barrier LP       :       0.00          0          0       0.00          -       0.00          0
  resolve instable :       0.00          0          0       0.00          -
  diving/probing LP:     277.28      43765    3973911      90.80   14331.76
  strong branching :       7.37        701      69805      99.58    9471.51          -          -         99
    (at root node) :          -         42       2221      52.88          -
  conflict analysis:       7.00       7169      70335       9.81   10047.86
NLP relaxation     :
  solve time       :       6.72 (6 calls)
  convexity        :  nonconvex (90 linear rows, 122 convex ineq., 726 nonconvex ineq., 0 nonlinear eq. or two-sided ineq.)
NLP Solvers        :  #Problems  ProblemTi    #Solves  SolveTime      #Iter  Time/Iter      #Okay #TimeLimit #IterLimit #LObjLimit #Interrupt  #NumError #EvalError  #OutOfMem #LicenseEr #OtherTerm   #GlobOpt    #LocOpt  #Feasible #LocInfeas #GlobInfea #Unbounded   #Unknown
  ipopt            :         29      21.32         35      19.38       1740       0.01         28          0          7          0          0          0          0          0          0          0          0          5          2         20          0          0          8
B&B Tree           :
  number of runs   :          1
  nodes            :      31409 (31407 internal, 2 leaves)
  feasible leaves  :          0
  infeas. leaves   :          0
  objective leaves :          1
  nodes (total)    :      31409 (31407 internal, 2 leaves)
  nodes left       :      31407
  max depth        :         28
  max depth (total):         28
  backtracks       :       9916 (31.6%)
  early backtracks :          0 (0.0%)
  nodes exc. ref.  :          0 (0.0%)
  delayed cutoffs  :          0
  repropagations   :          6 (0 domain reductions, 0 cutoffs)
  avg switch length:       9.47
  switching time   :     924.13
Estim. Tree Size   :      62816
Estimation Tree    : 62815 nodes (31408 visited, 31407 internal, 1 leaves, 31407 open), weight: 0.0000 completed 0.0326
Estimations        :      estim      value      trend resolution     smooth
  wbe              :   33554431          -          -          -          -
  tree-profile     :         -1          -          -          -          -
  gap              :          2    0.77571    0.76596          1          2
  tree-weight      :      62816    0.00000    0.00000          1       9590
  leaf-frequency   :          3    0.00002    0.50010          1          3
  ssg              :         58    0.94859   -0.03340          1         59
  open-nodes       :      62816 31407.00000 4794.00000          1       9590
Root Node          :
  First LP value   : -2.23729698321219e+00
  First LP Iters   :       2671 (29677.78 Iter/sec)
  First LP Time    :       0.09
  Final Dual Bound : -1.93364523072142e+00
  Final Root Iters :      14408
  Root LP Estimate : -1.57095244618150e+00
Solution           :
  Solutions found  :          5 (5 improvements)
  First Solution   : -3.82304175679392e-01   (in run 1, after 1 nodes, 1.27 seconds, depth 0, found by <feaspump>)
  Gap First Sol.   :     485.21 %
  Gap Last Sol.    :      31.81 %
  Primal Bound     : -1.43711366885501e+00   (in run 1, after 1232 nodes, 199.17 seconds, depth 9, found by <randrounding>)
  Dual Bound       : -1.85264162026659e+00
  Gap              :      28.91 %
Integrals          :      Total       Avg%
  primal-dual      :   87685.10      24.36
  primal-ref       :          -          - (not evaluated)
  dual-ref         :          -          - (not evaluated)
